108950
43,21,4,18,23,30,47,20,70,65,35,25,69,61,79,44,45,53,12,17,36,72,63,0,9,28,13,75,66,19,8,57,76,16,73,31,39,10,15,32,26,6,55,50,71,80,46,59,42,56,2,48,33,11,22,54,41,24,68,14,60,5,78,82,7,27,34,29,1,37,74,81,77,40,51,38,62,3,64,49,52,58,67
